PARAMETER_FILE = even/even_uncomplete_graph_new/seg/par/random124.par
PROBLEM_FILE = even/even_uncomplete_graph_new/seg/mat/random124.tsp
Successes/Runs = 0/10
Cost.min = 851, Cost.avg = 851.00, Cost.max = 851
Gap.min = 0.0000%, Gap.avg = 0.0000%, Gap.max = 0.0000%
Trials.min = 1000, Trials.avg = 1000.0, Trials.max = 1000
Time.min = 1.38 sec., Time.avg = 1.99 sec., Time.max = 2.89 sec.
Time.total = 20.04 sec.
